194862
62,38,51,49,58,43,47,23,30,18,20,4,17,53,45,8,67,64,3,52,7,82,78,14,24,11,71,80,59,48,33,46,50,37,54,2,42,56,22,6,55,73,16,76,57,81,31,39,19,75,66,65,35,63,36,9,61,69,13,28,79,70,12,72,0,25,44,21,27,29,1,41,74,10,32,26,15,34,5,60,68,40,77
